
Value of objective function: 1334.00000000

Actual values of the variables:
y                            1334
E0                            100
E1                            100
E2                            100
E3                            100
E4                            100
E5                            100
E6                            100
E7                            118
E8                            100
E9                            100
E10                           118
E11                           100
E12                           100
E13                           100
E14                           100
E15                           100
E16                           100
E17                           100
E18                           100
E19                           100
E20                           100
E21                           100
E22                           100
E23                           336
E24                           100
E25                           100
E26                           261
E27                           100
E28                           100
E29                           118
E30                           100
E31                           100
E32                           100
E33                           100
E34                           317
E35                           100
E36                           100
E37                           100
E38                           100
E39                           100
E40                           336
E41                           343
E42                           343
E43                           379
E44                           445
E45                           145
E46                           100
E47                           443
E48                           100
E49                           261
E50                           443
E51                           443
E52                           443
E53                           100
E54                           118
E55                           100
E56                           100
E57                           443
E58                           118
E59                           100
E60                           228
E87                           228
E61                           228
E88                           228
E62                           228
E89                           228
E63                           199
E90                           199
E64                           410
E91                           410
E65                           820
E92                           820
E66                           228
E94                           228
E67                           228
E95                           228
E68                           228
E96                           228
E69                           210
E97                           210
E70                           335
E98                           335
E71                           217
E99                           217
E72                           371
E100                          371
E73                           379
E102                          379
E74                           210
E103                          210
E75                           756
E104                          756
E76                           756
E107                          756
E77                          1099
E110                         1099
E78                          1011
E131                         1011
E79                           901
E152                          901
E80                           956
E160                          956
E81                          1027
E167                         1027
E82                          1054
E191                         1054
E83                          1092
E198                         1092
E84                          1099
E204                         1099
E85                          1035
E213                         1035
E93                           236
E101                          261
E105                          563
E106                          563
E108                          638
E109                          638
E111                          656
E123                          981
E112                          557
E113                          453
E118                          453
E114                          354
E115                          236
E116                          228
E117                          218
E119                          335
E121                          335
E120                          210
E122                          217
E124                          563
E125                          755
E126                          774
E127                          656
E128                          379
E130                          379
E129                          210
E132                          780
E137                          846
E148                          893
E133                          681
E136                          673
E134                          563
E135                          445
E138                          681
E143                          681
E145                          673
E139                          563
E141                          563
E140                          445
E142                          445
E144                          571
E146                          555
E147                          563
E149                          783
E150                          673
E151                          563
E153                          654
E154                          756
E155                          783
E156                          665
E157                          665
E158                          489
E159                          379
E161                          662
E162                          838
E163                          791
E164                          681
E165                          563
E166                          379
E168                          563
E173                          917
E169                          445
E171                          445
E170                          335
E172                          335
E174                          799
E175                          791
E188                          799
E176                          662
E180                          681
E184                          681
E177                          563
E178                          434
E179                          445
E181                          563
E182                          434
E183                          445
E185                          582
E186                          453
E187                          335
E189                          681
E190                          681
E192                          898
E193                          826
E194                          936
E195                          826
E196                          716
E197                          497
E199                          864
E200                          974
E201                          811
E202                          673
E203                          563
E205                          662
E206                          917
E209                          811
E207                          780
E208                          791
E210                          693
E211                          673
E212                          497
E214                          662
E215                          917
E216                          811
E217                          673
E218                          673
E219                          497
p0                            749
p1                            749
p2                            749
p3                            749
p4                            575
p5                            675
p6                            532
p7                            718
p8                            749
p9                            674
p10                           718
p11                           718
p12                           514
p13                           514
p14                           718
p15                           532
p16                           532
p17                           474
p18                           474
p19                           514
p20                           514
p21                           514
p22                           514
p23                           902
p24                           902
p25                           902
p26                           902
p27                           902
p28                           902
p29                           902
p30                           902
p31                          1095
p32                          1095
p33                           749
p34                           749
p35                           749
p36                           749
p37                           610
p38                           792
p39                           575
p40                          1331
p41                          1020
p42                          1095
p43                          1256
p44                           977
p45                           977
p46                          1020
p47                          1113
p48                          1095
p49                           902
p50                          1438
p51                          1295
p52                          1320
p53                          1020
p54                           718
p55                           718
p56                           718
p57                          1438
p58                           718
p59                           902
p60                           228
p61                           228
p62                           228
p63                           199
p64                           410
p65                           820
p66                           228
p67                           228
p68                           228
p69                           210
p70                           335
p71                           217
p72                           371
p73                           379
p74                           210
p75                           756
p76                           756
p77                          1099
p78                          1011
p79                           901
p80                           956
p81                          1027
p82                          1054
p83                          1092
p84                          1099
p85                          1035
p87                          1156
p88                          1156
p89                          1156
p90                           467
p91                          1117
p92                          1306
p93                          1117
p94                          1156
p95                           538
p96                           538
p97                           520
p98                           603
p99                          1156
p100                         1156
p101                         1117
p102                         1117
p103                          520
p104                         1117
p105                         1117
p106                         1117
p107                         1117
p108                         1117
p109                         1117
p110                         1460
p111                         1531
p112                          924
p113                          903
p114                          924
p115                         1117
p116                         1156
p117                         1117
p118                          916
p119                         1117
p120                          680
p121                         1117
p122                          667
p123                         1460
p124                         1326
p125                         1313
p126                         1378
p127                         1106
p128                         1135
p129                          724
p130                         1135
p131                         1460
p132                         1531
p133                         1533
p134                         1156
p135                         1373
p136                         1249
p137                         1356
p138                         1156
p139                         1117
p140                          908
p141                         1117
p142                          908
p143                         1156
p144                         1460
p145                         1201
p146                          983
p147                         1117
p148                         1499
p149                         1499
p150                         1156
p151                         1278
p152                         1460
p153                         1233
p154                         1262
p155                         1460
p156                         1201
p157                         1156
p158                         1156
p159                         1117
p160                         1460
p161                         1333
p162                         1460
p163                         1301
p164                         1117
p165                         1117
p166                         1042
p167                         1392
p168                         1353
p169                          895
p170                          798
p171                         1156
p172                         1117
p173                         1453
p174                         1317
p175                         1399
p176                         1431
p177                         1117
p178                          895
p179                          908
p180                         1431
p181                         1117
p182                          895
p183                          908
p184                         1431
p185                         1262
p186                         1117
p187                         1188
p188                         1360
p189                         1131
p190                         1360
p191                         1415
p192                         1386
p193                         1386
p194                         1399
p195                         1399
p196                         1136
p197                         1097
p198                         1453
p199                         1424
p200                         1437
p201                         1353
p202                         1156
p203                         1117
p204                         1460
p205                         1431
p206                         1460
p207                         1249
p208                         1399
p209                         1460
p210                         1156
p211                         1156
p212                         1117
p213                         1396
p214                         1367
p215                         1396
p216                         1396
p217                         1156
p218                         1156
p219                         1117
o0                           1334
o1                           1334
o2                           1334
o3                           1334
o4                           1334
o5                           1334
o6                           1334
o7                           1352
o8                           1334
o9                           1334
o10                          1352
o11                          1334
o12                           902
o13                           902
o14                          1334
o15                          1334
o16                          1334
o17                           613
o18                           613
o19                           698
o20                           698
o21                           698
o22                           698
o23                          1570
o24                          1334
o25                          1334
o26                          1495
o27                          1334
o28                          1334
o29                          1352
o30                          1334
o31                          1334
o32                          1334
o33                          1334
o34                          1551
o35                          1086
o36                          1086
o37                          1334
o38                          1334
o39                          1334
o40                          1570
o41                          1577
o42                          1577
o43                          1613
o44                          1679
o45                          1379
o46                          1334
o47                          1677
o48                          1334
o49                          1495
o50                          1677
o51                          1677
o52                          1677
o53                          1334
o54                          1352
o55                          1334
o56                          1259
o57                          1677
o58                          1352
o59                          1334
o87                          1334
o88                          1452
o89                          1452
o90                           613
o91                          1626
o92                          1452
o93                          1452
o94                          1452
o95                           716
o96                           716
o97                           698
o98                           749
o99                          1441
o100                         1595
o101                         1477
o102                         1334
o103                          698
o104                         1334
o105                         1334
o106                         1334
o107                         1334
o108                         1334
o109                         1334
o110                         1677
o111                         1677
o112                         1677
o113                         1677
o114                         1570
o115                         1452
o116                         1452
o117                         1434
o118                         1677
o119                         1551
o120                         1434
o121                         1551
o122                         1452
o123                         1677
o124                         1787
o125                         1677
o126                         1990
o127                         1595
o128                         1595
o129                         1434
o130                         1595
o131                         1677
o132                         1677
o133                         1916
o134                         1787
o135                         1669
o136                         1677
o137                         1677
o138                         1534
o139                         1334
o140                         1334
o141                         1479
o142                         1334
o143                         1534
o144                         1677
o145                         1534
o146                         1379
o147                         1479
o148                         1677
o149                         1677
o150                         1897
o151                         1779
o152                         1677
o153                         1677
o154                         1677
o155                         1677
o156                         1677
o157                         1677
o158                         1334
o159                         1334
o160                         1677
o161                         1677
o162                         1677
o163                         1677
o164                         1479
o165                         1334
o166                         1334
o167                         1570
o168                         1570
o169                         1570
o170                         1334
o171                         1669
o172                         1334
o173                         1670
o174                         2015
o175                         1670
o176                         1577
o177                         1577
o178                         1669
o179                         1669
o180                         1577
o181                         1577
o182                         1669
o183                         1669
o184                         1577
o185                         1613
o186                         1440
o187                         1334
o188                         1670
o189                         1577
o190                         1577
o191                         1632
o192                         1632
o193                         1632
o194                         1632
o195                         1577
o196                         1577
o197                         1314
o198                         1670
o199                         1670
o200                         1670
o201                         1615
o202                         1897
o203                         1334
o204                         1677
o205                         1677
o206                         1677
o207                         1677
o208                         1677
o209                         1677
o210                         1677
o211                         1677
o212                         1334
o213                         1613
o214                         1613
o215                         1613
o216                         1613
o217                         1613
o218                         1613
o219                         1334
